c smth
s vc 200 140
200
198
193
191
188
187
186
185
184
183
182
181
180
178
176
175
173
172
170
168
167
165
160
158
157
156
155
153
151
150
149
147
146
144
143
142
141
140
139
137
136
135
134
132
130
129
127
126
125
123
122
121
120
119
117
116
115
114
113
110
109
108
107
106
105
102
101
99
98
96
95
94
93
92
91
90
89
88
86
85
83
80
79
77
75
74
73
71
69
68
67
66
65
64
63
62
61
59
58
57
53
52
51
47
46
45
44
42
41
40
39
38
37
36
34
33
32
30
29
28
26
24
23
21
20
19
18
17
16
15
14
12
11
10
9
7
5
4
3
2